(set-logic QF_NRA)
(set-info :source |Benchmarks generated from hycomp (https://es-static.fbk.eu/tools/hycomp/). BMC instances of non-linear hybrid automata taken from: Alessandro Cimatti, Sergio Mover, Stefano Tonetta, A quantifier-free SMT encoding of non-linear hybrid automata, FMCAD 2012 and Alessandro Cimatti, Sergio Mover, Stefano Tonetta, Quantier-free encoding of invariants for Hybrid Systems, Formal Methods in System Design. This instance solves a BMC problem of depth 3 and uses the encoding obtained with quantifier elimination using redlog encoding. Contacts: Sergio Mover (mover@fbk.eu), Stefano Tonetta (tonettas@fbk.eu), Alessandro Cimatti (cimatti@fbk.eu).|)
(set-info :smt-lib-version 2.0)
(set-info :category "industrial")
(set-info :status unsat)
;; MathSAT API call trace
;; generated on Mon Mar 19 10:44:21 2012
(declare-fun b.event_is_timed__AT1 () Bool)
(declare-fun b.counter.0__AT1 () Bool)
(declare-fun b.event_is_timed__AT3 () Bool)
(declare-fun b.speed_x__AT0 () Real)
(declare-fun b.speed_x__AT2 () Real)
(declare-fun b.counter.1__AT1 () Bool)
(declare-fun b.speed_y__AT2 () Real)
(declare-fun b.time__AT0 () Real)
(declare-fun b.counter.2__AT0 () Bool)
(declare-fun b.counter.2__AT1 () Bool)
(declare-fun b.counter.3__AT1 () Bool)
(declare-fun b.x__AT0 () Real)
(declare-fun b.time__AT3 () Real)
(declare-fun b.event_is_timed__AT2 () Bool)
(declare-fun b.counter.3__AT3 () Bool)
(declare-fun b.speed_x__AT1 () Real)
(declare-fun b.delta__AT3 () Real)
(declare-fun b.time__AT1 () Real)
(declare-fun g__AT0 () Real)
(declare-fun b.y__AT0 () Real)
(declare-fun b.EVENT.0__AT1 () Bool)
(declare-fun b.speed_y__AT1 () Real)
(declare-fun b.EVENT.0__AT3 () Bool)
(declare-fun b.delta__AT1 () Real)
(declare-fun b.counter.0__AT0 () Bool)
(declare-fun b.x__AT3 () Real)
(declare-fun b.EVENT.1__AT1 () Bool)
(declare-fun b.EVENT.1__AT3 () Bool)
(declare-fun b.counter.3__AT2 () Bool)
(declare-fun b.delta__AT0 () Real)
(declare-fun b.counter.1__AT0 () Bool)
(declare-fun b.time__AT2 () Real)
(declare-fun b.EVENT.0__AT0 () Bool)
(declare-fun b.delta__AT2 () Real)
(declare-fun b.event_is_timed__AT0 () Bool)
(declare-fun b.x__AT2 () Real)
(declare-fun b.EVENT.0__AT2 () Bool)
(declare-fun b.x__AT1 () Real)
(declare-fun b.y__AT4 () Real)
(declare-fun b.EVENT.1__AT2 () Bool)
(declare-fun b.speed_y__AT0 () Real)
(declare-fun b.y__AT3 () Real)
(declare-fun b.counter.0__AT3 () Bool)
(declare-fun b.counter.1__AT3 () Bool)
(declare-fun b.counter.2__AT3 () Bool)
(declare-fun b.y__AT2 () Real)
(declare-fun b.EVENT.1__AT0 () Bool)
(declare-fun b.counter.3__AT0 () Bool)
(declare-fun b.counter.0__AT2 () Bool)
(declare-fun b.counter.1__AT2 () Bool)
(declare-fun b.speed_x__AT3 () Real)
(declare-fun b.counter.2__AT2 () Bool)
(declare-fun b.speed_y__AT3 () Real)
(declare-fun speed_loss__AT0 () Real)
(declare-fun b.y__AT1 () Real)
(assert (let ((.def_919 (= b.y__AT3 b.y__AT4)))
(let ((.def_920 (not .def_919)))
(let ((.def_833 (* g__AT0 b.delta__AT3)))
(let ((.def_907 (<= b.speed_y__AT3 .def_833)))
(let ((.def_908 (not .def_907)))
(let ((.def_836 (* 2.0 b.speed_y__AT3)))
(let ((.def_837 (* b.delta__AT3 .def_836)))
(let ((.def_834 (* b.delta__AT3 .def_833)))
(let ((.def_835 (* (- 1.0) .def_834)))
(let ((.def_838 (+ .def_835 .def_837)))
(let ((.def_839 (* 2.0 b.y__AT3)))
(let ((.def_841 (+ .def_839 .def_838)))
(let ((.def_899 (= .def_841 0.0 )))
(let ((.def_900 (not .def_899)))
(let ((.def_909 (or .def_900 .def_908)))
(let ((.def_109 (* 2.0 g__AT0)))
(let ((.def_886 (* .def_109 b.speed_y__AT3)))
(let ((.def_887 (* b.delta__AT3 .def_886)))
(let ((.def_129 (* g__AT0 g__AT0)))
(let ((.def_883 (* .def_129 b.delta__AT3)))
(let ((.def_884 (* b.delta__AT3 .def_883)))
(let ((.def_885 (* (- 1.0) .def_884)))
(let ((.def_888 (+ .def_885 .def_887)))
(let ((.def_868 (* .def_109 b.y__AT3)))
(let ((.def_889 (+ .def_868 .def_888)))
(let ((.def_894 (<= 0.0 .def_889)))
(let ((.def_846 (* g__AT0 b.speed_y__AT3)))
(let ((.def_891 (<= .def_883 .def_846)))
(let ((.def_895 (or .def_891 .def_894)))
(let ((.def_910 (and .def_895 .def_909)))
(let ((.def_848 (* b.speed_y__AT3 b.speed_y__AT3)))
(let ((.def_869 (+ .def_848 .def_868)))
(let ((.def_904 (<= .def_869 0.0 )))
(let ((.def_905 (not .def_904)))
(let ((.def_125 (<= 0.0 g__AT0)))
(let ((.def_126 (not .def_125)))
(let ((.def_906 (or .def_126 .def_905)))
(let ((.def_911 (or .def_906 .def_910)))
(let ((.def_873 (* g__AT0 b.y__AT3)))
(let ((.def_877 (<= .def_873 0.0 )))
(let ((.def_876 (<= .def_846 0.0 )))
(let ((.def_878 (and .def_876 .def_877)))
(let ((.def_912 (or .def_878 .def_911)))
(let ((.def_897 (<= .def_833 b.speed_y__AT3)))
(let ((.def_898 (not .def_897)))
(let ((.def_901 (or .def_898 .def_900)))
(let ((.def_890 (<= .def_889 0.0 )))
(let ((.def_892 (and .def_890 .def_891)))
(let ((.def_893 (or .def_126 .def_892)))
(let ((.def_896 (and .def_893 .def_895)))
(let ((.def_902 (and .def_896 .def_901)))
(let ((.def_880 (= .def_869 0.0 )))
(let ((.def_881 (and .def_126 .def_880)))
(let ((.def_874 (<= 0.0 .def_873)))
(let ((.def_117 (<= g__AT0 0.0 )))
(let ((.def_118 (not .def_117)))
(let ((.def_875 (and .def_118 .def_874)))
(let ((.def_879 (or .def_875 .def_878)))
(let ((.def_882 (or .def_879 .def_881)))
(let ((.def_903 (or .def_882 .def_902)))
(let ((.def_913 (and .def_903 .def_912)))
(let ((.def_870 (<= 0.0 .def_869)))
(let ((.def_871 (not .def_870)))
(let ((.def_92 (= g__AT0 0.0 )))
(let ((.def_872 (or .def_92 .def_871)))
(let ((.def_914 (or .def_872 .def_913)))
(let ((.def_861 (* b.speed_y__AT3 b.delta__AT3)))
(let ((.def_862 (+ b.y__AT3 .def_861)))
(let ((.def_863 (= .def_862 0.0 )))
(let ((.def_864 (not .def_863)))
(let ((.def_858 (* b.delta__AT3 .def_848)))
(let ((.def_853 (* b.y__AT3 b.speed_y__AT3)))
(let ((.def_859 (+ .def_853 .def_858)))
(let ((.def_860 (<= .def_859 0.0 )))
(let ((.def_865 (and .def_860 .def_864)))
(let ((.def_856 (= b.speed_y__AT3 0.0 )))
(let ((.def_854 (<= 0.0 .def_853)))
(let ((.def_849 (* b.speed_y__AT3 .def_848)))
(let ((.def_847 (* b.y__AT3 .def_846)))
(let ((.def_850 (+ .def_847 .def_849)))
(let ((.def_851 (<= .def_850 0.0 )))
(let ((.def_93 (not .def_92)))
(let ((.def_852 (or .def_93 .def_851)))
(let ((.def_855 (or .def_852 .def_854)))
(let ((.def_857 (or .def_855 .def_856)))
(let ((.def_866 (or .def_857 .def_865)))
(let ((.def_843 (<= 0.0 b.delta__AT3)))
(let ((.def_844 (not .def_843)))
(let ((.def_842 (<= 0.0 .def_841)))
(let ((.def_845 (or .def_842 .def_844)))
(let ((.def_867 (and .def_845 .def_866)))
(let ((.def_915 (and .def_867 .def_914)))
(let ((.def_818 (not b.EVENT.0__AT3)))
(let ((.def_816 (not b.EVENT.1__AT3)))
(let ((.def_830 (and .def_816 .def_818)))
(let ((.def_916 (and .def_830 .def_915)))
(let ((.def_917 (not .def_916)))
(let ((.def_921 (or .def_917 .def_920)))
(let ((.def_831 (not .def_830)))
(let ((.def_922 (or .def_831 .def_921)))
(let ((.def_478 (not b.counter.0__AT2)))
(let ((.def_825 (or b.counter.1__AT2 .def_478)))
(let ((.def_473 (not b.counter.2__AT2)))
(let ((.def_826 (or .def_473 .def_825)))
(let ((.def_827 (or b.counter.3__AT2 .def_826)))
(let ((.def_821 (<= 0.0 b.y__AT3)))
(let ((.def_61 (<= speed_loss__AT0 (/ 1 2))))
(let ((.def_58 (<= (/ 1 10) speed_loss__AT0)))
(let ((.def_62 (and .def_58 .def_61)))
(let ((.def_53 (<= g__AT0 10.0 )))
(let ((.def_52 (<= 8.0 g__AT0)))
(let ((.def_54 (and .def_52 .def_53)))
(let ((.def_63 (and .def_54 .def_62)))
(let ((.def_822 (and .def_63 .def_821)))
(let ((.def_819 (or .def_816 .def_818)))
(let ((.def_715 (not b.counter.1__AT3)))
(let ((.def_4 (not b.counter.0__AT3)))
(let ((.def_809 (or .def_4 .def_715)))
(let ((.def_813 (or b.counter.3__AT3 .def_809)))
(let ((.def_810 (or b.counter.2__AT3 .def_809)))
(let ((.def_8 (not b.counter.2__AT3)))
(let ((.def_808 (or .def_4 .def_8)))
(let ((.def_811 (and .def_808 .def_810)))
(let ((.def_732 (not b.counter.3__AT3)))
(let ((.def_812 (or .def_732 .def_811)))
(let ((.def_814 (and .def_812 .def_813)))
(let ((.def_820 (and .def_814 .def_819)))
(let ((.def_823 (and .def_820 .def_822)))
(let ((.def_599 (<= 0.0 b.delta__AT2)))
(let ((.def_574 (not b.EVENT.0__AT2)))
(let ((.def_572 (not b.EVENT.1__AT2)))
(let ((.def_586 (and .def_572 .def_574)))
(let ((.def_587 (not .def_586)))
(let ((.def_804 (or .def_587 .def_599)))
(let ((.def_805 (or b.EVENT.1__AT2 .def_804)))
(let ((.def_754 (= b.counter.0__AT3 b.counter.0__AT2)))
(let ((.def_752 (= b.counter.1__AT3 b.counter.1__AT2)))
(let ((.def_750 (= b.counter.2__AT3 b.counter.2__AT2)))
(let ((.def_749 (= b.counter.3__AT3 b.counter.3__AT2)))
(let ((.def_751 (and .def_749 .def_750)))
(let ((.def_753 (and .def_751 .def_752)))
(let ((.def_755 (and .def_753 .def_754)))
(let ((.def_801 (or .def_587 .def_755)))
(let ((.def_802 (or b.EVENT.1__AT2 .def_801)))
(let ((.def_761 (= b.x__AT2 b.x__AT3)))
(let ((.def_675 (= b.y__AT2 b.y__AT3)))
(let ((.def_795 (and .def_675 .def_761)))
(let ((.def_687 (= b.speed_x__AT2 b.speed_x__AT3)))
(let ((.def_796 (and .def_687 .def_795)))
(let ((.def_748 (= b.speed_y__AT2 b.speed_y__AT3)))
(let ((.def_797 (and .def_748 .def_796)))
(let ((.def_792 (= b.delta__AT2 0.0 )))
(let ((.def_793 (and .def_586 .def_792)))
(let ((.def_794 (not .def_793)))
(let ((.def_798 (or .def_794 .def_797)))
(let ((.def_799 (or b.EVENT.1__AT2 .def_798)))
(let ((.def_772 (= b.time__AT2 b.time__AT3)))
(let ((.def_784 (and .def_761 .def_772)))
(let ((.def_785 (and .def_675 .def_784)))
(let ((.def_786 (and .def_687 .def_785)))
(let ((.def_787 (and .def_748 .def_786)))
(let ((.def_788 (and .def_755 .def_787)))
(let ((.def_789 (or .def_572 .def_788)))
(let ((.def_775 (* (- 1.0) b.time__AT3)))
(let ((.def_778 (+ b.delta__AT2 .def_775)))
(let ((.def_779 (+ b.time__AT2 .def_778)))
(let ((.def_780 (= .def_779 0.0 )))
(let ((.def_781 (or .def_587 .def_780)))
(let ((.def_782 (or b.EVENT.1__AT2 .def_781)))
(let ((.def_773 (or .def_586 .def_772)))
(let ((.def_774 (or b.EVENT.1__AT2 .def_773)))
(let ((.def_783 (and .def_774 .def_782)))
(let ((.def_790 (and .def_783 .def_789)))
(let ((.def_768 (= .def_587 b.event_is_timed__AT3)))
(let ((.def_766 (= b.event_is_timed__AT2 .def_586)))
(let ((.def_769 (and .def_766 .def_768)))
(let ((.def_756 (and .def_748 .def_755)))
(let ((.def_709 (<= 0.0 b.speed_y__AT2)))
(let ((.def_710 (not .def_709)))
(let ((.def_708 (= b.y__AT2 0.0 )))
(let ((.def_711 (and .def_708 .def_710)))
(let ((.def_757 (or .def_711 .def_756)))
(let ((.def_724 (or .def_4 b.counter.0__AT2)))
(let ((.def_723 (or b.counter.0__AT3 .def_478)))
(let ((.def_725 (and .def_723 .def_724)))
(let ((.def_726 (and .def_715 .def_725)))
(let ((.def_727 (or b.counter.1__AT2 .def_726)))
(let ((.def_466 (not b.counter.1__AT2)))
(let ((.def_722 (or b.counter.1__AT3 .def_466)))
(let ((.def_728 (and .def_722 .def_727)))
(let ((.def_740 (and .def_8 .def_728)))
(let ((.def_741 (or b.counter.2__AT2 .def_740)))
(let ((.def_735 (and .def_478 .def_715)))
(let ((.def_736 (or b.counter.1__AT2 .def_735)))
(let ((.def_737 (and .def_722 .def_736)))
(let ((.def_738 (and b.counter.2__AT3 .def_737)))
(let ((.def_739 (or .def_473 .def_738)))
(let ((.def_742 (and .def_739 .def_741)))
(let ((.def_743 (and b.counter.3__AT3 .def_742)))
(let ((.def_744 (or b.counter.3__AT2 .def_743)))
(let ((.def_729 (and b.counter.2__AT3 .def_728)))
(let ((.def_730 (or b.counter.2__AT2 .def_729)))
(let ((.def_718 (or b.counter.1__AT3 b.counter.1__AT2)))
(let ((.def_716 (and b.counter.0__AT3 .def_715)))
(let ((.def_717 (or .def_466 .def_716)))
(let ((.def_719 (and .def_717 .def_718)))
(let ((.def_720 (and .def_8 .def_719)))
(let ((.def_721 (or .def_473 .def_720)))
(let ((.def_731 (and .def_721 .def_730)))
(let ((.def_733 (and .def_731 .def_732)))
(let ((.def_488 (not b.counter.3__AT2)))
(let ((.def_734 (or .def_488 .def_733)))
(let ((.def_745 (and .def_734 .def_744)))
(let ((.def_441 (* (- 1.0) b.speed_y__AT2)))
(let ((.def_210 (* (- 1.0) speed_loss__AT0)))
(let ((.def_211 (+ 1.0 .def_210)))
(let ((.def_713 (* .def_211 .def_441)))
(let ((.def_714 (= b.speed_y__AT3 .def_713)))
(let ((.def_746 (and .def_714 .def_745)))
(let ((.def_712 (not .def_711)))
(let ((.def_747 (or .def_712 .def_746)))
(let ((.def_758 (and .def_747 .def_757)))
(let ((.def_759 (and .def_675 .def_758)))
(let ((.def_760 (and .def_687 .def_759)))
(let ((.def_762 (and .def_760 .def_761)))
(let ((.def_763 (or .def_586 .def_762)))
(let ((.def_764 (or b.EVENT.1__AT2 .def_763)))
(let ((.def_696 (* b.delta__AT2 b.delta__AT2)))
(let ((.def_184 (* (- 1.0) g__AT0)))
(let ((.def_192 (* (/ 1 2) .def_184)))
(let ((.def_697 (* .def_192 .def_696)))
(let ((.def_699 (* (- 1.0) b.y__AT3)))
(let ((.def_702 (+ .def_699 .def_697)))
(let ((.def_617 (* b.speed_y__AT2 b.delta__AT2)))
(let ((.def_703 (+ .def_617 .def_702)))
(let ((.def_704 (+ b.y__AT2 .def_703)))
(let ((.def_705 (= .def_704 0.0 )))
(let ((.def_691 (* (- 1.0) b.speed_y__AT3)))
(let ((.def_689 (* .def_184 b.delta__AT2)))
(let ((.def_692 (+ .def_689 .def_691)))
(let ((.def_693 (+ b.speed_y__AT2 .def_692)))
(let ((.def_694 (= .def_693 0.0 )))
(let ((.def_682 (* (- 1.0) b.x__AT3)))
(let ((.def_680 (* b.speed_x__AT2 b.delta__AT2)))
(let ((.def_683 (+ .def_680 .def_682)))
(let ((.def_684 (+ b.x__AT2 .def_683)))
(let ((.def_685 (= .def_684 0.0 )))
(let ((.def_688 (and .def_685 .def_687)))
(let ((.def_695 (and .def_688 .def_694)))
(let ((.def_706 (and .def_695 .def_705)))
(let ((.def_707 (or .def_587 .def_706)))
(let ((.def_765 (and .def_707 .def_764)))
(let ((.def_770 (and .def_765 .def_769)))
(let ((.def_791 (and .def_770 .def_790)))
(let ((.def_800 (and .def_791 .def_799)))
(let ((.def_803 (and .def_800 .def_802)))
(let ((.def_806 (and .def_803 .def_805)))
(let ((.def_807 (and .def_572 .def_806)))
(let ((.def_824 (and .def_807 .def_823)))
(let ((.def_828 (and .def_824 .def_827)))
(let ((.def_676 (not .def_675)))
(let ((.def_589 (* g__AT0 b.delta__AT2)))
(let ((.def_663 (<= b.speed_y__AT2 .def_589)))
(let ((.def_664 (not .def_663)))
(let ((.def_592 (* 2.0 b.speed_y__AT2)))
(let ((.def_593 (* b.delta__AT2 .def_592)))
(let ((.def_590 (* b.delta__AT2 .def_589)))
(let ((.def_591 (* (- 1.0) .def_590)))
(let ((.def_594 (+ .def_591 .def_593)))
(let ((.def_595 (* 2.0 b.y__AT2)))
(let ((.def_597 (+ .def_595 .def_594)))
(let ((.def_655 (= .def_597 0.0 )))
(let ((.def_656 (not .def_655)))
(let ((.def_665 (or .def_656 .def_664)))
(let ((.def_642 (* .def_109 b.speed_y__AT2)))
(let ((.def_643 (* b.delta__AT2 .def_642)))
(let ((.def_639 (* .def_129 b.delta__AT2)))
(let ((.def_640 (* b.delta__AT2 .def_639)))
(let ((.def_641 (* (- 1.0) .def_640)))
(let ((.def_644 (+ .def_641 .def_643)))
(let ((.def_624 (* .def_109 b.y__AT2)))
(let ((.def_645 (+ .def_624 .def_644)))
(let ((.def_650 (<= 0.0 .def_645)))
(let ((.def_602 (* g__AT0 b.speed_y__AT2)))
(let ((.def_647 (<= .def_639 .def_602)))
(let ((.def_651 (or .def_647 .def_650)))
(let ((.def_666 (and .def_651 .def_665)))
(let ((.def_604 (* b.speed_y__AT2 b.speed_y__AT2)))
(let ((.def_625 (+ .def_604 .def_624)))
(let ((.def_660 (<= .def_625 0.0 )))
(let ((.def_661 (not .def_660)))
(let ((.def_662 (or .def_126 .def_661)))
(let ((.def_667 (or .def_662 .def_666)))
(let ((.def_629 (* g__AT0 b.y__AT2)))
(let ((.def_633 (<= .def_629 0.0 )))
(let ((.def_632 (<= .def_602 0.0 )))
(let ((.def_634 (and .def_632 .def_633)))
(let ((.def_668 (or .def_634 .def_667)))
(let ((.def_653 (<= .def_589 b.speed_y__AT2)))
(let ((.def_654 (not .def_653)))
(let ((.def_657 (or .def_654 .def_656)))
(let ((.def_646 (<= .def_645 0.0 )))
(let ((.def_648 (and .def_646 .def_647)))
(let ((.def_649 (or .def_126 .def_648)))
(let ((.def_652 (and .def_649 .def_651)))
(let ((.def_658 (and .def_652 .def_657)))
(let ((.def_636 (= .def_625 0.0 )))
(let ((.def_637 (and .def_126 .def_636)))
(let ((.def_630 (<= 0.0 .def_629)))
(let ((.def_631 (and .def_118 .def_630)))
(let ((.def_635 (or .def_631 .def_634)))
(let ((.def_638 (or .def_635 .def_637)))
(let ((.def_659 (or .def_638 .def_658)))
(let ((.def_669 (and .def_659 .def_668)))
(let ((.def_626 (<= 0.0 .def_625)))
(let ((.def_627 (not .def_626)))
(let ((.def_628 (or .def_92 .def_627)))
(let ((.def_670 (or .def_628 .def_669)))
(let ((.def_618 (+ b.y__AT2 .def_617)))
(let ((.def_619 (= .def_618 0.0 )))
(let ((.def_620 (not .def_619)))
(let ((.def_614 (* b.delta__AT2 .def_604)))
(let ((.def_609 (* b.y__AT2 b.speed_y__AT2)))
(let ((.def_615 (+ .def_609 .def_614)))
(let ((.def_616 (<= .def_615 0.0 )))
(let ((.def_621 (and .def_616 .def_620)))
(let ((.def_612 (= b.speed_y__AT2 0.0 )))
(let ((.def_610 (<= 0.0 .def_609)))
(let ((.def_605 (* b.speed_y__AT2 .def_604)))
(let ((.def_603 (* b.y__AT2 .def_602)))
(let ((.def_606 (+ .def_603 .def_605)))
(let ((.def_607 (<= .def_606 0.0 )))
(let ((.def_608 (or .def_93 .def_607)))
(let ((.def_611 (or .def_608 .def_610)))
(let ((.def_613 (or .def_611 .def_612)))
(let ((.def_622 (or .def_613 .def_621)))
(let ((.def_600 (not .def_599)))
(let ((.def_598 (<= 0.0 .def_597)))
(let ((.def_601 (or .def_598 .def_600)))
(let ((.def_623 (and .def_601 .def_622)))
(let ((.def_671 (and .def_623 .def_670)))
(let ((.def_672 (and .def_586 .def_671)))
(let ((.def_673 (not .def_672)))
(let ((.def_677 (or .def_673 .def_676)))
(let ((.def_678 (or .def_587 .def_677)))
(let ((.def_228 (not b.counter.0__AT1)))
(let ((.def_581 (or b.counter.1__AT1 .def_228)))
(let ((.def_223 (not b.counter.2__AT1)))
(let ((.def_582 (or .def_223 .def_581)))
(let ((.def_583 (or b.counter.3__AT1 .def_582)))
(let ((.def_577 (<= 0.0 b.y__AT2)))
(let ((.def_578 (and .def_63 .def_577)))
(let ((.def_575 (or .def_572 .def_574)))
(let ((.def_565 (or .def_466 .def_478)))
(let ((.def_569 (or b.counter.3__AT2 .def_565)))
(let ((.def_566 (or b.counter.2__AT2 .def_565)))
(let ((.def_564 (or .def_473 .def_478)))
(let ((.def_567 (and .def_564 .def_566)))
(let ((.def_568 (or .def_488 .def_567)))
(let ((.def_570 (and .def_568 .def_569)))
(let ((.def_576 (and .def_570 .def_575)))
(let ((.def_579 (and .def_576 .def_578)))
(let ((.def_349 (<= 0.0 b.delta__AT1)))
(let ((.def_324 (not b.EVENT.0__AT1)))
(let ((.def_322 (not b.EVENT.1__AT1)))
(let ((.def_336 (and .def_322 .def_324)))
(let ((.def_337 (not .def_336)))
(let ((.def_560 (or .def_337 .def_349)))
(let ((.def_561 (or b.EVENT.1__AT1 .def_560)))
(let ((.def_510 (= b.counter.0__AT1 b.counter.0__AT2)))
(let ((.def_508 (= b.counter.1__AT1 b.counter.1__AT2)))
(let ((.def_506 (= b.counter.2__AT1 b.counter.2__AT2)))
(let ((.def_505 (= b.counter.3__AT1 b.counter.3__AT2)))
(let ((.def_507 (and .def_505 .def_506)))
(let ((.def_509 (and .def_507 .def_508)))
(let ((.def_511 (and .def_509 .def_510)))
(let ((.def_557 (or .def_337 .def_511)))
(let ((.def_558 (or b.EVENT.1__AT1 .def_557)))
(let ((.def_517 (= b.x__AT1 b.x__AT2)))
(let ((.def_425 (= b.y__AT1 b.y__AT2)))
(let ((.def_551 (and .def_425 .def_517)))
(let ((.def_437 (= b.speed_x__AT1 b.speed_x__AT2)))
(let ((.def_552 (and .def_437 .def_551)))
(let ((.def_504 (= b.speed_y__AT1 b.speed_y__AT2)))
(let ((.def_553 (and .def_504 .def_552)))
(let ((.def_548 (= b.delta__AT1 0.0 )))
(let ((.def_549 (and .def_336 .def_548)))
(let ((.def_550 (not .def_549)))
(let ((.def_554 (or .def_550 .def_553)))
(let ((.def_555 (or b.EVENT.1__AT1 .def_554)))
(let ((.def_528 (= b.time__AT1 b.time__AT2)))
(let ((.def_540 (and .def_517 .def_528)))
(let ((.def_541 (and .def_425 .def_540)))
(let ((.def_542 (and .def_437 .def_541)))
(let ((.def_543 (and .def_504 .def_542)))
(let ((.def_544 (and .def_511 .def_543)))
(let ((.def_545 (or .def_322 .def_544)))
(let ((.def_531 (* (- 1.0) b.time__AT2)))
(let ((.def_534 (+ b.delta__AT1 .def_531)))
(let ((.def_535 (+ b.time__AT1 .def_534)))
(let ((.def_536 (= .def_535 0.0 )))
(let ((.def_537 (or .def_337 .def_536)))
(let ((.def_538 (or b.EVENT.1__AT1 .def_537)))
(let ((.def_529 (or .def_336 .def_528)))
(let ((.def_530 (or b.EVENT.1__AT1 .def_529)))
(let ((.def_539 (and .def_530 .def_538)))
(let ((.def_546 (and .def_539 .def_545)))
(let ((.def_524 (= .def_337 b.event_is_timed__AT2)))
(let ((.def_522 (= b.event_is_timed__AT1 .def_336)))
(let ((.def_525 (and .def_522 .def_524)))
(let ((.def_512 (and .def_504 .def_511)))
(let ((.def_459 (<= 0.0 b.speed_y__AT1)))
(let ((.def_460 (not .def_459)))
(let ((.def_458 (= b.y__AT1 0.0 )))
(let ((.def_461 (and .def_458 .def_460)))
(let ((.def_513 (or .def_461 .def_512)))
(let ((.def_479 (or b.counter.0__AT1 .def_478)))
(let ((.def_477 (or .def_228 b.counter.0__AT2)))
(let ((.def_480 (and .def_477 .def_479)))
(let ((.def_481 (and .def_466 .def_480)))
(let ((.def_482 (or b.counter.1__AT1 .def_481)))
(let ((.def_216 (not b.counter.1__AT1)))
(let ((.def_476 (or .def_216 b.counter.1__AT2)))
(let ((.def_483 (and .def_476 .def_482)))
(let ((.def_496 (and .def_473 .def_483)))
(let ((.def_497 (or b.counter.2__AT1 .def_496)))
(let ((.def_491 (and .def_228 .def_466)))
(let ((.def_492 (or b.counter.1__AT1 .def_491)))
(let ((.def_493 (and .def_476 .def_492)))
(let ((.def_494 (and b.counter.2__AT2 .def_493)))
(let ((.def_495 (or .def_223 .def_494)))
(let ((.def_498 (and .def_495 .def_497)))
(let ((.def_499 (and b.counter.3__AT2 .def_498)))
(let ((.def_500 (or b.counter.3__AT1 .def_499)))
(let ((.def_484 (and b.counter.2__AT2 .def_483)))
(let ((.def_485 (or b.counter.2__AT1 .def_484)))
(let ((.def_470 (or b.counter.1__AT1 b.counter.1__AT2)))
(let ((.def_468 (and .def_466 b.counter.0__AT2)))
(let ((.def_469 (or .def_216 .def_468)))
(let ((.def_471 (and .def_469 .def_470)))
(let ((.def_474 (and .def_471 .def_473)))
(let ((.def_475 (or .def_223 .def_474)))
(let ((.def_486 (and .def_475 .def_485)))
(let ((.def_489 (and .def_486 .def_488)))
(let ((.def_238 (not b.counter.3__AT1)))
(let ((.def_490 (or .def_238 .def_489)))
(let ((.def_501 (and .def_490 .def_500)))
(let ((.def_187 (* (- 1.0) b.speed_y__AT1)))
(let ((.def_463 (* .def_187 .def_211)))
(let ((.def_464 (= b.speed_y__AT2 .def_463)))
(let ((.def_502 (and .def_464 .def_501)))
(let ((.def_462 (not .def_461)))
(let ((.def_503 (or .def_462 .def_502)))
(let ((.def_514 (and .def_503 .def_513)))
(let ((.def_515 (and .def_425 .def_514)))
(let ((.def_516 (and .def_437 .def_515)))
(let ((.def_518 (and .def_516 .def_517)))
(let ((.def_519 (or .def_336 .def_518)))
(let ((.def_520 (or b.EVENT.1__AT1 .def_519)))
(let ((.def_446 (* b.delta__AT1 b.delta__AT1)))
(let ((.def_447 (* .def_192 .def_446)))
(let ((.def_449 (* (- 1.0) b.y__AT2)))
(let ((.def_452 (+ .def_449 .def_447)))
(let ((.def_367 (* b.speed_y__AT1 b.delta__AT1)))
(let ((.def_453 (+ .def_367 .def_452)))
(let ((.def_454 (+ b.y__AT1 .def_453)))
(let ((.def_455 (= .def_454 0.0 )))
(let ((.def_439 (* .def_184 b.delta__AT1)))
(let ((.def_442 (+ .def_439 .def_441)))
(let ((.def_443 (+ b.speed_y__AT1 .def_442)))
(let ((.def_444 (= .def_443 0.0 )))
(let ((.def_432 (* (- 1.0) b.x__AT2)))
(let ((.def_430 (* b.speed_x__AT1 b.delta__AT1)))
(let ((.def_433 (+ .def_430 .def_432)))
(let ((.def_434 (+ b.x__AT1 .def_433)))
(let ((.def_435 (= .def_434 0.0 )))
(let ((.def_438 (and .def_435 .def_437)))
(let ((.def_445 (and .def_438 .def_444)))
(let ((.def_456 (and .def_445 .def_455)))
(let ((.def_457 (or .def_337 .def_456)))
(let ((.def_521 (and .def_457 .def_520)))
(let ((.def_526 (and .def_521 .def_525)))
(let ((.def_547 (and .def_526 .def_546)))
(let ((.def_556 (and .def_547 .def_555)))
(let ((.def_559 (and .def_556 .def_558)))
(let ((.def_562 (and .def_559 .def_561)))
(let ((.def_563 (and .def_322 .def_562)))
(let ((.def_580 (and .def_563 .def_579)))
(let ((.def_584 (and .def_580 .def_583)))
(let ((.def_426 (not .def_425)))
(let ((.def_339 (* g__AT0 b.delta__AT1)))
(let ((.def_413 (<= b.speed_y__AT1 .def_339)))
(let ((.def_414 (not .def_413)))
(let ((.def_342 (* 2.0 b.speed_y__AT1)))
(let ((.def_343 (* b.delta__AT1 .def_342)))
(let ((.def_340 (* b.delta__AT1 .def_339)))
(let ((.def_341 (* (- 1.0) .def_340)))
(let ((.def_344 (+ .def_341 .def_343)))
(let ((.def_345 (* 2.0 b.y__AT1)))
(let ((.def_347 (+ .def_345 .def_344)))
(let ((.def_405 (= .def_347 0.0 )))
(let ((.def_406 (not .def_405)))
(let ((.def_415 (or .def_406 .def_414)))
(let ((.def_392 (* .def_109 b.speed_y__AT1)))
(let ((.def_393 (* b.delta__AT1 .def_392)))
(let ((.def_389 (* .def_129 b.delta__AT1)))
(let ((.def_390 (* b.delta__AT1 .def_389)))
(let ((.def_391 (* (- 1.0) .def_390)))
(let ((.def_394 (+ .def_391 .def_393)))
(let ((.def_374 (* .def_109 b.y__AT1)))
(let ((.def_395 (+ .def_374 .def_394)))
(let ((.def_400 (<= 0.0 .def_395)))
(let ((.def_352 (* g__AT0 b.speed_y__AT1)))
(let ((.def_397 (<= .def_389 .def_352)))
(let ((.def_401 (or .def_397 .def_400)))
(let ((.def_416 (and .def_401 .def_415)))
(let ((.def_354 (* b.speed_y__AT1 b.speed_y__AT1)))
(let ((.def_375 (+ .def_354 .def_374)))
(let ((.def_410 (<= .def_375 0.0 )))
(let ((.def_411 (not .def_410)))
(let ((.def_412 (or .def_126 .def_411)))
(let ((.def_417 (or .def_412 .def_416)))
(let ((.def_379 (* g__AT0 b.y__AT1)))
(let ((.def_383 (<= .def_379 0.0 )))
(let ((.def_382 (<= .def_352 0.0 )))
(let ((.def_384 (and .def_382 .def_383)))
(let ((.def_418 (or .def_384 .def_417)))
(let ((.def_403 (<= .def_339 b.speed_y__AT1)))
(let ((.def_404 (not .def_403)))
(let ((.def_407 (or .def_404 .def_406)))
(let ((.def_396 (<= .def_395 0.0 )))
(let ((.def_398 (and .def_396 .def_397)))
(let ((.def_399 (or .def_126 .def_398)))
(let ((.def_402 (and .def_399 .def_401)))
(let ((.def_408 (and .def_402 .def_407)))
(let ((.def_386 (= .def_375 0.0 )))
(let ((.def_387 (and .def_126 .def_386)))
(let ((.def_380 (<= 0.0 .def_379)))
(let ((.def_381 (and .def_118 .def_380)))
(let ((.def_385 (or .def_381 .def_384)))
(let ((.def_388 (or .def_385 .def_387)))
(let ((.def_409 (or .def_388 .def_408)))
(let ((.def_419 (and .def_409 .def_418)))
(let ((.def_376 (<= 0.0 .def_375)))
(let ((.def_377 (not .def_376)))
(let ((.def_378 (or .def_92 .def_377)))
(let ((.def_420 (or .def_378 .def_419)))
(let ((.def_368 (+ b.y__AT1 .def_367)))
(let ((.def_369 (= .def_368 0.0 )))
(let ((.def_370 (not .def_369)))
(let ((.def_364 (* b.delta__AT1 .def_354)))
(let ((.def_359 (* b.y__AT1 b.speed_y__AT1)))
(let ((.def_365 (+ .def_359 .def_364)))
(let ((.def_366 (<= .def_365 0.0 )))
(let ((.def_371 (and .def_366 .def_370)))
(let ((.def_362 (= b.speed_y__AT1 0.0 )))
(let ((.def_360 (<= 0.0 .def_359)))
(let ((.def_355 (* b.speed_y__AT1 .def_354)))
(let ((.def_353 (* b.y__AT1 .def_352)))
(let ((.def_356 (+ .def_353 .def_355)))
(let ((.def_357 (<= .def_356 0.0 )))
(let ((.def_358 (or .def_93 .def_357)))
(let ((.def_361 (or .def_358 .def_360)))
(let ((.def_363 (or .def_361 .def_362)))
(let ((.def_372 (or .def_363 .def_371)))
(let ((.def_350 (not .def_349)))
(let ((.def_348 (<= 0.0 .def_347)))
(let ((.def_351 (or .def_348 .def_350)))
(let ((.def_373 (and .def_351 .def_372)))
(let ((.def_421 (and .def_373 .def_420)))
(let ((.def_422 (and .def_336 .def_421)))
(let ((.def_423 (not .def_422)))
(let ((.def_427 (or .def_423 .def_426)))
(let ((.def_428 (or .def_337 .def_427)))
(let ((.def_28 (not b.counter.0__AT0)))
(let ((.def_331 (or b.counter.1__AT0 .def_28)))
(let ((.def_31 (not b.counter.2__AT0)))
(let ((.def_332 (or .def_31 .def_331)))
(let ((.def_333 (or b.counter.3__AT0 .def_332)))
(let ((.def_327 (<= 0.0 b.y__AT1)))
(let ((.def_328 (and .def_63 .def_327)))
(let ((.def_325 (or .def_322 .def_324)))
(let ((.def_315 (or .def_216 .def_228)))
(let ((.def_319 (or b.counter.3__AT1 .def_315)))
(let ((.def_316 (or b.counter.2__AT1 .def_315)))
(let ((.def_314 (or .def_223 .def_228)))
(let ((.def_317 (and .def_314 .def_316)))
(let ((.def_318 (or .def_238 .def_317)))
(let ((.def_320 (and .def_318 .def_319)))
(let ((.def_326 (and .def_320 .def_325)))
(let ((.def_329 (and .def_326 .def_328)))
(let ((.def_83 (<= 0.0 b.delta__AT0)))
(let ((.def_47 (not b.EVENT.0__AT0)))
(let ((.def_45 (not b.EVENT.1__AT0)))
(let ((.def_69 (and .def_45 .def_47)))
(let ((.def_70 (not .def_69)))
(let ((.def_310 (or .def_70 .def_83)))
(let ((.def_311 (or b.EVENT.1__AT0 .def_310)))
(let ((.def_260 (= b.counter.0__AT0 b.counter.0__AT1)))
(let ((.def_258 (= b.counter.1__AT0 b.counter.1__AT1)))
(let ((.def_256 (= b.counter.2__AT0 b.counter.2__AT1)))
(let ((.def_255 (= b.counter.3__AT0 b.counter.3__AT1)))
(let ((.def_257 (and .def_255 .def_256)))
(let ((.def_259 (and .def_257 .def_258)))
(let ((.def_261 (and .def_259 .def_260)))
(let ((.def_307 (or .def_70 .def_261)))
(let ((.def_308 (or b.EVENT.1__AT0 .def_307)))
(let ((.def_267 (= b.x__AT1 b.x__AT0)))
(let ((.def_166 (= b.y__AT0 b.y__AT1)))
(let ((.def_301 (and .def_166 .def_267)))
(let ((.def_182 (= b.speed_x__AT0 b.speed_x__AT1)))
(let ((.def_302 (and .def_182 .def_301)))
(let ((.def_254 (= b.speed_y__AT0 b.speed_y__AT1)))
(let ((.def_303 (and .def_254 .def_302)))
(let ((.def_298 (= b.delta__AT0 0.0 )))
(let ((.def_299 (and .def_69 .def_298)))
(let ((.def_300 (not .def_299)))
(let ((.def_304 (or .def_300 .def_303)))
(let ((.def_305 (or b.EVENT.1__AT0 .def_304)))
(let ((.def_278 (= b.time__AT0 b.time__AT1)))
(let ((.def_290 (and .def_267 .def_278)))
(let ((.def_291 (and .def_166 .def_290)))
(let ((.def_292 (and .def_182 .def_291)))
(let ((.def_293 (and .def_254 .def_292)))
(let ((.def_294 (and .def_261 .def_293)))
(let ((.def_295 (or .def_45 .def_294)))
(let ((.def_281 (* (- 1.0) b.time__AT1)))
(let ((.def_284 (+ b.delta__AT0 .def_281)))
(let ((.def_285 (+ b.time__AT0 .def_284)))
(let ((.def_286 (= .def_285 0.0 )))
(let ((.def_287 (or .def_70 .def_286)))
(let ((.def_288 (or b.EVENT.1__AT0 .def_287)))
(let ((.def_279 (or .def_69 .def_278)))
(let ((.def_280 (or b.EVENT.1__AT0 .def_279)))
(let ((.def_289 (and .def_280 .def_288)))
(let ((.def_296 (and .def_289 .def_295)))
(let ((.def_274 (= .def_70 b.event_is_timed__AT1)))
(let ((.def_272 (= b.event_is_timed__AT0 .def_69)))
(let ((.def_275 (and .def_272 .def_274)))
(let ((.def_262 (and .def_254 .def_261)))
(let ((.def_206 (<= 0.0 b.speed_y__AT0)))
(let ((.def_207 (not .def_206)))
(let ((.def_205 (= b.y__AT0 0.0 )))
(let ((.def_208 (and .def_205 .def_207)))
(let ((.def_263 (or .def_208 .def_262)))
(let ((.def_229 (or b.counter.0__AT0 .def_228)))
(let ((.def_227 (or .def_28 b.counter.0__AT1)))
(let ((.def_230 (and .def_227 .def_229)))
(let ((.def_231 (and .def_216 .def_230)))
(let ((.def_232 (or b.counter.1__AT0 .def_231)))
(let ((.def_26 (not b.counter.1__AT0)))
(let ((.def_226 (or .def_26 b.counter.1__AT1)))
(let ((.def_233 (and .def_226 .def_232)))
(let ((.def_246 (and .def_223 .def_233)))
(let ((.def_247 (or b.counter.2__AT0 .def_246)))
(let ((.def_241 (and .def_28 .def_216)))
(let ((.def_242 (or b.counter.1__AT0 .def_241)))
(let ((.def_243 (and .def_226 .def_242)))
(let ((.def_244 (and b.counter.2__AT1 .def_243)))
(let ((.def_245 (or .def_31 .def_244)))
(let ((.def_248 (and .def_245 .def_247)))
(let ((.def_249 (and b.counter.3__AT1 .def_248)))
(let ((.def_250 (or b.counter.3__AT0 .def_249)))
(let ((.def_234 (and b.counter.2__AT1 .def_233)))
(let ((.def_235 (or b.counter.2__AT0 .def_234)))
(let ((.def_220 (or b.counter.1__AT0 b.counter.1__AT1)))
(let ((.def_218 (and .def_216 b.counter.0__AT1)))
(let ((.def_219 (or .def_26 .def_218)))
(let ((.def_221 (and .def_219 .def_220)))
(let ((.def_224 (and .def_221 .def_223)))
(let ((.def_225 (or .def_31 .def_224)))
(let ((.def_236 (and .def_225 .def_235)))
(let ((.def_239 (and .def_236 .def_238)))
(let ((.def_34 (not b.counter.3__AT0)))
(let ((.def_240 (or .def_34 .def_239)))
(let ((.def_251 (and .def_240 .def_250)))
(let ((.def_212 (* (- 1.0) b.speed_y__AT0)))
(let ((.def_213 (* .def_211 .def_212)))
(let ((.def_214 (= b.speed_y__AT1 .def_213)))
(let ((.def_252 (and .def_214 .def_251)))
(let ((.def_209 (not .def_208)))
(let ((.def_253 (or .def_209 .def_252)))
(let ((.def_264 (and .def_253 .def_263)))
(let ((.def_265 (and .def_166 .def_264)))
(let ((.def_266 (and .def_182 .def_265)))
(let ((.def_268 (and .def_266 .def_267)))
(let ((.def_269 (or .def_69 .def_268)))
(let ((.def_270 (or b.EVENT.1__AT0 .def_269)))
(let ((.def_193 (* b.delta__AT0 b.delta__AT0)))
(let ((.def_194 (* .def_192 .def_193)))
(let ((.def_196 (* (- 1.0) b.y__AT1)))
(let ((.def_199 (+ .def_196 .def_194)))
(let ((.def_102 (* b.speed_y__AT0 b.delta__AT0)))
(let ((.def_200 (+ .def_102 .def_199)))
(let ((.def_201 (+ b.y__AT0 .def_200)))
(let ((.def_202 (= .def_201 0.0 )))
(let ((.def_185 (* b.delta__AT0 .def_184)))
(let ((.def_188 (+ .def_185 .def_187)))
(let ((.def_189 (+ b.speed_y__AT0 .def_188)))
(let ((.def_190 (= .def_189 0.0 )))
(let ((.def_174 (* (- 1.0) b.x__AT1)))
(let ((.def_178 (+ .def_174 b.x__AT0)))
(let ((.def_172 (* b.delta__AT0 b.speed_x__AT0)))
(let ((.def_179 (+ .def_172 .def_178)))
(let ((.def_180 (= .def_179 0.0 )))
(let ((.def_183 (and .def_180 .def_182)))
(let ((.def_191 (and .def_183 .def_190)))
(let ((.def_203 (and .def_191 .def_202)))
(let ((.def_204 (or .def_70 .def_203)))
(let ((.def_271 (and .def_204 .def_270)))
(let ((.def_276 (and .def_271 .def_275)))
(let ((.def_297 (and .def_276 .def_296)))
(let ((.def_306 (and .def_297 .def_305)))
(let ((.def_309 (and .def_306 .def_308)))
(let ((.def_312 (and .def_309 .def_311)))
(let ((.def_313 (and .def_45 .def_312)))
(let ((.def_330 (and .def_313 .def_329)))
(let ((.def_334 (and .def_330 .def_333)))
(let ((.def_167 (not .def_166)))
(let ((.def_72 (* g__AT0 b.delta__AT0)))
(let ((.def_154 (<= b.speed_y__AT0 .def_72)))
(let ((.def_155 (not .def_154)))
(let ((.def_76 (* 2.0 b.speed_y__AT0)))
(let ((.def_77 (* b.delta__AT0 .def_76)))
(let ((.def_73 (* b.delta__AT0 .def_72)))
(let ((.def_75 (* (- 1.0) .def_73)))
(let ((.def_78 (+ .def_75 .def_77)))
(let ((.def_79 (* 2.0 b.y__AT0)))
(let ((.def_81 (+ .def_79 .def_78)))
(let ((.def_146 (= .def_81 0.0 )))
(let ((.def_147 (not .def_146)))
(let ((.def_156 (or .def_147 .def_155)))
(let ((.def_133 (* b.speed_y__AT0 .def_109)))
(let ((.def_134 (* b.delta__AT0 .def_133)))
(let ((.def_130 (* b.delta__AT0 .def_129)))
(let ((.def_131 (* b.delta__AT0 .def_130)))
(let ((.def_132 (* (- 1.0) .def_131)))
(let ((.def_135 (+ .def_132 .def_134)))
(let ((.def_110 (* b.y__AT0 .def_109)))
(let ((.def_136 (+ .def_110 .def_135)))
(let ((.def_141 (<= 0.0 .def_136)))
(let ((.def_86 (* b.speed_y__AT0 g__AT0)))
(let ((.def_138 (<= .def_130 .def_86)))
(let ((.def_142 (or .def_138 .def_141)))
(let ((.def_157 (and .def_142 .def_156)))
(let ((.def_88 (* b.speed_y__AT0 b.speed_y__AT0)))
(let ((.def_111 (+ .def_88 .def_110)))
(let ((.def_151 (<= .def_111 0.0 )))
(let ((.def_152 (not .def_151)))
(let ((.def_153 (or .def_126 .def_152)))
(let ((.def_158 (or .def_153 .def_157)))
(let ((.def_115 (* b.y__AT0 g__AT0)))
(let ((.def_121 (<= .def_115 0.0 )))
(let ((.def_120 (<= .def_86 0.0 )))
(let ((.def_122 (and .def_120 .def_121)))
(let ((.def_159 (or .def_122 .def_158)))
(let ((.def_144 (<= .def_72 b.speed_y__AT0)))
(let ((.def_145 (not .def_144)))
(let ((.def_148 (or .def_145 .def_147)))
(let ((.def_137 (<= .def_136 0.0 )))
(let ((.def_139 (and .def_137 .def_138)))
(let ((.def_140 (or .def_126 .def_139)))
(let ((.def_143 (and .def_140 .def_142)))
(let ((.def_149 (and .def_143 .def_148)))
(let ((.def_124 (= .def_111 0.0 )))
(let ((.def_127 (and .def_124 .def_126)))
(let ((.def_116 (<= 0.0 .def_115)))
(let ((.def_119 (and .def_116 .def_118)))
(let ((.def_123 (or .def_119 .def_122)))
(let ((.def_128 (or .def_123 .def_127)))
(let ((.def_150 (or .def_128 .def_149)))
(let ((.def_160 (and .def_150 .def_159)))
(let ((.def_112 (<= 0.0 .def_111)))
(let ((.def_113 (not .def_112)))
(let ((.def_114 (or .def_92 .def_113)))
(let ((.def_161 (or .def_114 .def_160)))
(let ((.def_103 (+ b.y__AT0 .def_102)))
(let ((.def_104 (= .def_103 0.0 )))
(let ((.def_105 (not .def_104)))
(let ((.def_99 (* b.delta__AT0 .def_88)))
(let ((.def_95 (* b.y__AT0 b.speed_y__AT0)))
(let ((.def_100 (+ .def_95 .def_99)))
(let ((.def_101 (<= .def_100 0.0 )))
(let ((.def_106 (and .def_101 .def_105)))
(let ((.def_96 (<= 0.0 .def_95)))
(let ((.def_89 (* b.speed_y__AT0 .def_88)))
(let ((.def_87 (* b.y__AT0 .def_86)))
(let ((.def_90 (+ .def_87 .def_89)))
(let ((.def_91 (<= .def_90 0.0 )))
(let ((.def_94 (or .def_91 .def_93)))
(let ((.def_97 (or .def_94 .def_96)))
(let ((.def_23 (= b.speed_y__AT0 0.0 )))
(let ((.def_98 (or .def_23 .def_97)))
(let ((.def_107 (or .def_98 .def_106)))
(let ((.def_84 (not .def_83)))
(let ((.def_82 (<= 0.0 .def_81)))
(let ((.def_85 (or .def_82 .def_84)))
(let ((.def_108 (and .def_85 .def_107)))
(let ((.def_162 (and .def_108 .def_161)))
(let ((.def_163 (and .def_69 .def_162)))
(let ((.def_164 (not .def_163)))
(let ((.def_168 (or .def_164 .def_167)))
(let ((.def_169 (or .def_70 .def_168)))
(let ((.def_64 (<= 0.0 b.y__AT0)))
(let ((.def_65 (and .def_63 .def_64)))
(let ((.def_48 (or .def_45 .def_47)))
(let ((.def_38 (or .def_26 .def_28)))
(let ((.def_42 (or b.counter.3__AT0 .def_38)))
(let ((.def_39 (or b.counter.2__AT0 .def_38)))
(let ((.def_37 (or .def_28 .def_31)))
(let ((.def_40 (and .def_37 .def_39)))
(let ((.def_41 (or .def_34 .def_40)))
(let ((.def_43 (and .def_41 .def_42)))
(let ((.def_49 (and .def_43 .def_48)))
(let ((.def_66 (and .def_49 .def_65)))
(let ((.def_29 (and .def_26 .def_28)))
(let ((.def_32 (and .def_29 .def_31)))
(let ((.def_35 (and .def_32 .def_34)))
(let ((.def_20 (= b.y__AT0 10.0 )))
(let ((.def_15 (= b.time__AT0 0.0 )))
(let ((.def_17 (and .def_15 b.event_is_timed__AT0)))
(let ((.def_21 (and .def_17 .def_20)))
(let ((.def_24 (and .def_21 .def_23)))
(let ((.def_36 (and .def_24 .def_35)))
(let ((.def_67 (and .def_36 .def_66)))
(let ((.def_6 (or .def_4 b.counter.1__AT3)))
(let ((.def_9 (or .def_6 .def_8)))
(let ((.def_11 (or .def_9 b.counter.3__AT3)))
(let ((.def_12 (not .def_11)))
(let ((.def_68 (and .def_12 .def_67)))
(let ((.def_170 (and .def_68 .def_169)))
(let ((.def_335 (and .def_170 .def_334)))
(let ((.def_429 (and .def_335 .def_428)))
(let ((.def_585 (and .def_429 .def_584)))
(let ((.def_679 (and .def_585 .def_678)))
(let ((.def_829 (and .def_679 .def_828)))
(let ((.def_923 (and .def_829 .def_922)))
.def_923))))))))))))))))))))))))))))))))))))))))))))))))))))))))))))))))))))))))))))))))))))))))))))))))))))))))))))))))))))))))))))))))))))))))))))))))))))))))))))))))))))))))))))))))))))))))))))))))))))))))))))))))))))))))))))))))))))))))))))))))))))))))))))))))))))))))))))))))))))))))))))))))))))))))))))))))))))))))))))))))))))))))))))))))))))))))))))))))))))))))))))))))))))))))))))))))))))))))))))))))))))))))))))))))))))))))))))))))))))))))))))))))))))))))))))))))))))))))))))))))))))))))))))))))))))))))))))))))))))))))))))))))))))))))))))))))))))))))))))))))))))))))))))))))))))))))))))))))))))))))))))))))))))))))))))))))))))))))))))))))))))))))))))))))))))))))))))))))))))))))))))))))))))))))))))))))))))))))))))))))))))))))))))))))))))))))))))))))))))))))))))))))))))))))))))))))))))))))))))))))))))))))))))))))))))))))))))))))))))))
(check-sat)
(exit)
